c read Graph
c width = 33
c time = 416 ms
c width = 4
c time = 530 ms
c width = 4
c time = 4329 ms
s td 40 5 44
b 1 1 2 12
b 2 2 3 12 13
b 3 9 10 21 22
b 4 3 12 13 23
b 5 9 21 22 33
b 6 23 24 35 36
b 7 32 33 42 43
b 8 3 4 5 15
b 9 5 6 7 17
b 10 7 8 9 19
b 11 3 13 14 23 24
b 12 3 14 23 24 36
b 13 3 14 24 25 36
b 14 3 14 15 25 36
b 15 3 5 15 25 36
b 16 5 15 25 26 36
b 17 5 15 16 26 36
b 18 5 16 26 36 37
b 19 5 16 26 27 37
b 20 5 16 17 27 37
b 21 5 7 17 27 37
b 22 7 17 27 37 38
b 23 7 17 27 28 38
b 24 7 17 18 28 38
b 25 7 18 28 38 39
b 26 7 18 28 29 39
b 27 7 18 19 29 39
b 28 7 9 19 29 39
b 29 9 19 29 39 40
b 30 9 19 29 30 40
b 31 9 19 20 30 40
b 32 9 20 30 40 41
b 33 9 20 30 31 41
b 34 9 20 21 31 41
b 35 9 21 31 33 41
b 36 21 31 32 33 41
b 37 31 32 33 41 42
b 38 33 43 44
b 39 23 34 35
b 40 10 11 22
1 2
2 4
3 40
3 5
4 11
5 35
6 39
6 12
7 38
7 37
8 15
9 21
10 28
11 12
12 13
13 14
14 15
15 16
16 17
17 18
18 19
19 20
20 21
21 22
22 23
23 24
24 25
25 26
26 27
27 28
28 29
29 30
30 31
31 32
32 33
33 34
34 35
35 36
36 37
